Rutile
   1.00000000000000
     2.8203973769999999    0.0000000000000000    0.0000000000000000
     0.0000000000000000    4.6010694503999998    0.0000000000000000
     0.0000000000000000    0.0000000000000000    4.6171269687453114
   Ti   O
     2     4
Direct
  0.5000000000000000  0.5000000000000000  0.5000000000000000
  0.0000000000000000  0.0000000000000000  0.0000000000000000
  0.5000000000000000  0.1976089683520001  0.8021723166398260
  0.5000000000000000  0.8023910466480046  0.1978276983601788
  0.0000000000000000  0.3023910466480046  0.3021723166398260
  0.0000000000000000  0.6976089533519954  0.6978276833601740
