Hf4 O8                                  
   1.00000000000000     
     0.0000000000000000    5.1374170454333772    0.0054814055047612
     5.1884288582455902    0.0000000000000000    0.0000000000000000
     0.0000000000000000   -0.8892051545661016   -5.2468923934217049
   Hf   O 
     4     8
Direct
  0.7240759228542046  0.5426542937740564  0.2921088607395603
  0.2759240771457954  0.0426542937740564  0.2078911392604397
  0.2759240771457954  0.4573457062259436  0.7078911392604397
  0.7240759228542046  0.9573457062259436  0.7921088607395603
  0.5511440930796141  0.2572938673920007  0.0224197658478431
  0.4488559069203859  0.7572938673919936  0.4775802341521569
  0.4488559069203859  0.7427061326080064  0.9775802341521569
  0.5511440930796141  0.2427061326080064  0.5224197658478431
  0.9324901228313394  0.6706035003237645  0.6523715401052357
  0.0675098771686606  0.1706035003237645  0.8476284598947643
  0.0675098771686606  0.3293964996762355  0.3476284598947643
  0.9324901228313394  0.8293964996762355  0.1523715401052357
 
  0.00000000E+00  0.00000000E+00  0.00000000E+00
  0.00000000E+00  0.00000000E+00  0.00000000E+00
  0.00000000E+00  0.00000000E+00  0.00000000E+00
  0.00000000E+00  0.00000000E+00  0.00000000E+00
  0.00000000E+00  0.00000000E+00  0.00000000E+00
  0.00000000E+00  0.00000000E+00  0.00000000E+00
  0.00000000E+00  0.00000000E+00  0.00000000E+00
  0.00000000E+00  0.00000000E+00  0.00000000E+00
  0.00000000E+00  0.00000000E+00  0.00000000E+00
  0.00000000E+00  0.00000000E+00  0.00000000E+00
  0.00000000E+00  0.00000000E+00  0.00000000E+00
  0.00000000E+00  0.00000000E+00  0.00000000E+00
