Hf8 O16                                 
   1.00000000000000     
     5.0799971043096885    0.0000000000000000    0.0000000000000003
     0.0000000000000008    5.2431079481828293    0.0000000000000003
     0.0000000000000000    0.0000000000000000   10.0470604727210038
   Hf   O 
     8    16
Direct
  0.7541811438408885  0.4642692456283939  0.1155636033834497
  0.2541811438408885  0.5357307543716061  0.3844363966165503
  0.7458188561591115  0.9642692456283939  0.8844363966165503
  0.2458188561591115  0.0357307543716061  0.6155636033834497
  0.2458188561591115  0.5357307543716061  0.8844363966165503
  0.7458188561591115  0.4642692456283939  0.6155636033834497
  0.2541811438408885  0.0357307543716061  0.1155636033834497
  0.7541811438408885  0.9642692456283939  0.3844363966165503
  0.9976125036616068  0.2614712947767757  0.4773950607517392
  0.4976125036616068  0.7385287052232243  0.0226049392482608
  0.5023874963383932  0.7614712947767757  0.5226049392482608
  0.0023874963383932  0.2385287052232243  0.9773950607517392
  0.0023874963383932  0.7385287052232243  0.5226049392482608
  0.5023874963383932  0.2614712947767757  0.9773950607517392
  0.4976125036616068  0.2385287052232243  0.4773950607517392
  0.9976125036616068  0.7614712947767757  0.0226049392482608
  0.6247770571672788  0.6271787299837186  0.2891791597919990
  0.1247770571672788  0.3728212700162814  0.2108208402080010
  0.8752229428327212  0.1271787299837186  0.7108208402080010
  0.3752229428327212  0.8728212700162814  0.7891791597919990
  0.3752229428327212  0.3728212700162814  0.7108208402080010
  0.8752229428327212  0.6271787299837186  0.7891791597919990
  0.1247770571672788  0.8728212700162814  0.2891791597919990
  0.6247770571672788  0.1271787299837186  0.2108208402080010
 
  0.00000000E+00  0.00000000E+00  0.00000000E+00
  0.00000000E+00  0.00000000E+00  0.00000000E+00
  0.00000000E+00  0.00000000E+00  0.00000000E+00
  0.00000000E+00  0.00000000E+00  0.00000000E+00
  0.00000000E+00  0.00000000E+00  0.00000000E+00
  0.00000000E+00  0.00000000E+00  0.00000000E+00
  0.00000000E+00  0.00000000E+00  0.00000000E+00
  0.00000000E+00  0.00000000E+00  0.00000000E+00
  0.00000000E+00  0.00000000E+00  0.00000000E+00
  0.00000000E+00  0.00000000E+00  0.00000000E+00
  0.00000000E+00  0.00000000E+00  0.00000000E+00
  0.00000000E+00  0.00000000E+00  0.00000000E+00
  0.00000000E+00  0.00000000E+00  0.00000000E+00
  0.00000000E+00  0.00000000E+00  0.00000000E+00
  0.00000000E+00  0.00000000E+00  0.00000000E+00
  0.00000000E+00  0.00000000E+00  0.00000000E+00
  0.00000000E+00  0.00000000E+00  0.00000000E+00
  0.00000000E+00  0.00000000E+00  0.00000000E+00
  0.00000000E+00  0.00000000E+00  0.00000000E+00
  0.00000000E+00  0.00000000E+00  0.00000000E+00
  0.00000000E+00  0.00000000E+00  0.00000000E+00
  0.00000000E+00  0.00000000E+00  0.00000000E+00
  0.00000000E+00  0.00000000E+00  0.00000000E+00
  0.00000000E+00  0.00000000E+00  0.00000000E+00
