lambda-Ta2O5
   1.00000000000000
     6.2580177556564616    0.0000000000000000    0.0000000000000000
     0.0000000000000000    7.4108126180726126    0.0000000000000000
     0.0000000000000000    0.0000000000000000    3.8263093186582382
   Ta   O
     4    10
Direct
  0.2247509900444723  0.3820265945183112  0.0000000000000000 
  0.7752490099555277  0.6179734054816889  0.0000000000000000   
  0.2752490099555278  0.8820265945183111  0.0000000000000000 
  0.7247509900444723  0.1179734054816888  0.0000000000000000 
  0.2009376142896103  0.3461830567215673  0.5000000000000000 
  0.7990623857103897  0.6538169432784326  0.5000000000000000 
  0.2990623857103897  0.8461830567215674  0.5000000000000000 
  0.7009376142896103  0.1538169432784327  0.5000000000000000 
  0.3893758620613472  0.1404791977499008  0.0000000000000000 
  0.6106241379386528  0.8595208022500992  0.0000000000000000 
  0.1106241379386528  0.6404791977499008  0.0000000000000000 
  0.8893758620613472  0.3595208022500992  0.0000000000000000 
  0.0000000000000000  0.0000000000000000  0.0000000000000000 
  0.5000000000000000  0.5000000000000000  0.0000000000000000 
