step_208. generated by vachoppy.
1.0
0.000000 10.274834 0.010963
10.376858 0.000000 0.000000
0.000000 -1.778410 -10.493785
Hf O 
32 63 
Direct
0.374235 0.257830 0.142443
0.398870 0.277377 0.584625
0.389084 0.752470 0.115676
0.359239 0.747045 0.657349
0.873662 0.226449 0.120145
0.885179 0.266028 0.593666
0.869039 0.726746 0.102773
0.858002 0.729425 0.650455
0.121000 0.984522 0.087638
0.097827 0.001525 0.647797
0.137896 0.501919 0.130895
0.161121 0.473925 0.603889
0.600793 0.008498 0.143409
0.694347 0.023651 0.617988
0.613248 0.510295 0.135918
0.607455 0.499109 0.626184
0.120226 0.241692 0.363038
0.110075 0.236896 0.885931
0.156788 0.772613 0.370185
0.102958 0.729751 0.873518
0.677534 0.255860 0.335870
0.595982 0.263289 0.891516
0.661404 0.762849 0.371762
0.615567 0.724236 0.878597
0.386732 0.537027 0.363018
0.350895 0.505987 0.887340
0.359913 0.008271 0.396517
0.370726 0.032207 0.867221
0.894993 0.537038 0.392241
0.874057 0.474728 0.871403
0.912839 0.976282 0.338461
0.827642 0.008987 0.887614
0.978411 0.128740 0.982218
0.263864 0.128629 0.514302
0.243137 0.601035 0.995601
0.240143 0.622320 0.486981
0.724929 0.098325 0.014007
0.757403 0.139842 0.494057
0.744466 0.580774 0.009770
0.739248 0.618580 0.503573
0.291979 0.411569 0.230590
0.304889 0.382119 0.719172
0.236304 0.909388 0.252997
0.259575 0.900230 0.726439
0.747653 0.355002 0.186181
0.040483 0.334512 0.735022
0.745717 0.882000 0.241691
0.745078 0.871310 0.749916
0.257882 0.379519 0.467783
0.515562 0.412683 0.983005
0.324395 0.852381 0.491154
0.231743 0.850264 0.007125
0.785674 0.384003 0.446983
0.792991 0.397070 0.690753
0.785996 0.871113 0.499920
0.743817 0.847268 0.993036
0.271452 0.167435 0.268514
0.936418 0.079647 0.715541
0.259940 0.656596 0.236078
0.226363 0.634950 0.751123
0.515706 0.125338 0.262263
0.722680 0.141656 0.761072
0.760147 0.638368 0.252586
0.727044 0.621773 0.764203
0.516972 0.376394 0.481482
0.549237 0.359615 0.729218
0.469647 0.903462 0.027452
0.492183 0.855390 0.786476
0.025397 0.354632 0.230645
0.784461 0.324901 0.949481
0.993894 0.844664 0.223873
0.021933 0.836643 0.699932
0.779441 0.121628 0.256857
0.982066 0.879766 0.944193
0.994646 0.632157 0.524213
0.021747 0.386300 0.993192
0.469524 0.138885 0.769201
0.515731 0.052058 0.527965
0.489005 0.643862 0.525078
0.497338 0.650139 0.010662
0.018754 0.095928 0.226391
0.016432 0.139092 0.487694
0.014726 0.595303 0.257009
0.976772 0.603105 0.767571
0.209012 0.126287 0.775876
0.240828 0.113204 0.022012
0.511743 0.632450 0.259420
0.480335 0.598193 0.768007
0.525246 0.380976 0.241158
0.489752 0.157725 0.014257
0.505751 0.872732 0.289893
0.267150 0.351039 0.977630
0.021958 0.385240 0.477428
0.999938 0.636305 0.005841
0.069198 0.904523 0.464259
