step_118. generated by vachoppy.
1.0
0.000000 10.274834 0.010963
10.376858 0.000000 0.000000
0.000000 -1.778410 -10.493785
Hf O 
32 63 
Direct
0.402203 0.254245 0.104210
0.357525 0.246177 0.682246
0.363203 0.746063 0.148157
0.416038 0.749658 0.583639
0.911871 0.276051 0.115271
0.871229 0.227121 0.606807
0.881419 0.744424 0.108687
0.802234 0.744345 0.653112
0.108968 0.019662 0.151521
0.094248 0.963699 0.607970
0.142450 0.494590 0.147602
0.099085 0.515994 0.638884
0.669154 0.011245 0.080721
0.593182 0.019475 0.649640
0.624378 0.506671 0.123155
0.580510 0.498293 0.633896
0.159260 0.227127 0.430706
0.123845 0.251355 0.870061
0.114405 0.741457 0.367226
0.136693 0.775172 0.903336
0.618712 0.246137 0.384740
0.650329 0.281958 0.849355
0.654433 0.758028 0.362270
0.604416 0.733527 0.879108
0.398323 0.481759 0.352118
0.347318 0.515103 0.877933
0.412976 0.001905 0.365761
0.375384 0.989210 0.880434
0.906104 0.469320 0.361757
0.894843 0.507509 0.852479
0.851090 0.013568 0.357842
0.906592 0.021363 0.874773
0.252859 0.123274 0.062153
0.241656 0.097817 0.576391
0.230418 0.627539 0.035230
0.021467 0.616617 0.472950
0.760558 0.140499 0.974335
0.746898 0.106523 0.475216
0.722135 0.638371 0.029170
0.381307 0.567740 0.520829
0.283043 0.371086 0.223704
0.234201 0.384235 0.729676
0.286289 0.845309 0.290362
0.205856 0.901076 0.783263
0.790731 0.392964 0.194029
0.725840 0.350589 0.691376
0.771204 0.859434 0.230105
0.675044 0.845091 0.744467
0.318351 0.324085 0.495383
0.253347 0.382900 0.982229
0.223643 0.799935 0.542762
0.299019 0.860432 0.007266
0.799612 0.351315 0.453212
0.767684 0.396708 0.951477
0.785489 0.853623 0.490753
0.801759 0.891194 0.986338
0.217411 0.089427 0.318628
0.285449 0.161102 0.826651
0.248859 0.616053 0.286381
0.204870 0.630224 0.774522
0.708277 0.123177 0.241147
0.770341 0.101534 0.720783
0.759104 0.604004 0.318172
0.718513 0.600381 0.780887
0.556587 0.401935 0.470848
0.485627 0.393252 0.753734
0.518056 0.887569 0.245067
0.437280 0.902406 0.714454
0.045964 0.342285 0.259513
0.996830 0.367801 0.742486
0.046021 0.838207 0.201011
0.954450 0.864840 0.739687
0.990630 0.128917 0.495578
0.010853 0.161207 0.989676
0.630771 0.660900 0.534490
0.971374 0.662842 0.953098
0.506069 0.140795 0.515069
0.501239 0.116688 0.020446
0.546244 0.381192 0.238425
0.478559 0.626518 0.993239
0.953702 0.099286 0.214220
0.018215 0.110946 0.741549
0.988077 0.602468 0.220357
0.938064 0.595803 0.692334
0.462947 0.158193 0.271898
0.514524 0.128777 0.775720
0.501798 0.623451 0.249589
0.465691 0.641462 0.747950
0.516868 0.380017 0.988291
0.538824 0.883102 0.971972
0.523568 0.884507 0.496714
0.007172 0.396537 0.999898
0.059557 0.372070 0.506080
0.054519 0.920974 0.981474
0.014531 0.896775 0.428657
