Hf2 O4                                  
   1.00000000000000     
     5.0729486443648062    0.0000000000000000    0.0000000000000000
     0.0000000000000000    5.0729486443648062    0.0000000000000000
     0.0000000000000000    0.0000000000000000    5.2241004990665250
   Hf   O 
     4     8
Direct
  0.5000000000000000  0.0000000000000000  0.5000000000000000
  0.0000000000000000  0.5000000000000000  0.5000000000000000
  0.0000000000000000  0.0000000000000000  0.0000000000000000
  0.5000000000000000  0.5000000000000000  0.0000000000000000
  0.2500000000000000  0.2500000000000000  0.6952117984201962
  0.7500000000000000  0.7500000000000000  0.6952117984201962
  0.2500000000000000  0.7500000000000000  0.8047882015798038
  0.7500000000000000  0.2500000000000000  0.8047882015798038
  0.2500000000000000  0.7500000000000000  0.3047882015798038
  0.7500000000000000  0.2500000000000000  0.3047882015798038
  0.2500000000000000  0.2500000000000000  0.1952118134201939
  0.7500000000000000  0.7500000000000000  0.1952118134201939
 
  0.00000000E+00  0.00000000E+00  0.00000000E+00
  0.00000000E+00  0.00000000E+00  0.00000000E+00
  0.00000000E+00  0.00000000E+00  0.00000000E+00
  0.00000000E+00  0.00000000E+00  0.00000000E+00
  0.00000000E+00  0.00000000E+00  0.00000000E+00
  0.00000000E+00  0.00000000E+00  0.00000000E+00
  0.00000000E+00  0.00000000E+00  0.00000000E+00
  0.00000000E+00  0.00000000E+00  0.00000000E+00
  0.00000000E+00  0.00000000E+00  0.00000000E+00
  0.00000000E+00  0.00000000E+00  0.00000000E+00
  0.00000000E+00  0.00000000E+00  0.00000000E+00
  0.00000000E+00  0.00000000E+00  0.00000000E+00
