Hf4 O8                                  
   1.00000000000000     
     5.0460181586163655    0.0000000000000000    0.0000000000000000
     0.0000000000000000    5.2648445783348414    0.0000000000000000
     0.0000000000000000    0.0000000000000000    5.0761692099845153
   Hf   O 
     4     8
Direct
  0.9992054052330753  0.9991935985518081  0.4974978985551642
  0.9992054052330753  0.4332163984481996  0.9974978985551641
  0.4659225737669265  0.4991935985518010  0.4974978985551642
  0.4659225737669265  0.9332164444481892  0.9974978985551641
  0.8007421533675988  0.3317304775816967  0.6401587445955760
  0.8007421533675988  0.1006795304183012  0.1401587325955750
  0.1948648501802341  0.6966641244248686  0.7476363898492704
  0.1948648501802341  0.7357458725751320  0.2476363198492717
  0.2702631278197640  0.2357458955751304  0.2476363198492717
  0.2702631278197640  0.1966641244248686  0.7476363898492704
  0.6643858256324030  0.8317304555817020  0.6401587445955760
  0.6643858256324030  0.6006795424182951  0.1401587325955750
 
  0.00000000E+00  0.00000000E+00  0.00000000E+00
  0.00000000E+00  0.00000000E+00  0.00000000E+00
  0.00000000E+00  0.00000000E+00  0.00000000E+00
  0.00000000E+00  0.00000000E+00  0.00000000E+00
  0.00000000E+00  0.00000000E+00  0.00000000E+00
  0.00000000E+00  0.00000000E+00  0.00000000E+00
  0.00000000E+00  0.00000000E+00  0.00000000E+00
  0.00000000E+00  0.00000000E+00  0.00000000E+00
  0.00000000E+00  0.00000000E+00  0.00000000E+00
  0.00000000E+00  0.00000000E+00  0.00000000E+00
  0.00000000E+00  0.00000000E+00  0.00000000E+00
  0.00000000E+00  0.00000000E+00  0.00000000E+00
