step_200. generated by vachoppy.
1.0
0.000000 10.274834 0.010963
10.376858 0.000000 0.000000
0.000000 -1.778410 -10.493785
Hf O Ag
32 63 1
Direct
0.275572 0.128647 0.011210
0.275572 0.128647 0.511210
0.275572 0.628647 0.011210
0.275572 0.628647 0.511210
0.775572 0.128647 0.011210
0.775572 0.128647 0.511210
0.775572 0.628647 0.011210
0.775572 0.628647 0.511210
0.224428 0.378647 0.238790
0.224428 0.378647 0.738790
0.224428 0.878647 0.238790
0.224428 0.878647 0.738790
0.724428 0.378647 0.238790
0.724428 0.378647 0.738790
0.724428 0.878647 0.238790
0.724428 0.878647 0.738790
0.224428 0.371353 0.488790
0.224428 0.371353 0.988790
0.224428 0.871353 0.488790
0.224428 0.871353 0.988790
0.724428 0.371353 0.488790
0.724428 0.371353 0.988790
0.724428 0.871353 0.488790
0.724428 0.871353 0.988790
0.275572 0.121353 0.261210
0.275572 0.121353 0.761210
0.275572 0.621353 0.261210
0.275572 0.621353 0.761210
0.775572 0.121353 0.261210
0.775572 0.121353 0.761210
0.775572 0.621353 0.261210
0.775572 0.621353 0.761210
0.466245 0.335302 0.326186
0.466245 0.414698 0.576186
0.466245 0.835302 0.326186
0.466245 0.835302 0.826186
0.966245 0.335302 0.326186
0.966245 0.335302 0.826186
0.966245 0.835302 0.326186
0.966245 0.835302 0.826186
0.033755 0.085302 0.423814
0.033755 0.085302 0.923814
0.033755 0.585302 0.423814
0.033755 0.585302 0.923814
0.533755 0.085302 0.423814
0.533755 0.085302 0.923814
0.533755 0.585302 0.423814
0.533755 0.585302 0.923814
0.033755 0.164698 0.173814
0.033755 0.164698 0.673814
0.033755 0.664698 0.173814
0.033755 0.664698 0.673814
0.533755 0.164698 0.173814
0.533755 0.164698 0.673814
0.533755 0.664698 0.173814
0.533755 0.664698 0.673814
0.466245 0.414698 0.076186
0.466245 0.914698 0.076186
0.466245 0.914698 0.576186
0.966245 0.414698 0.076186
0.966245 0.414698 0.576186
0.966245 0.914698 0.076186
0.966245 0.914698 0.576186
0.466245 0.335302 0.826186
