step_100. generated by vachoppy.
1.0
0.000000 10.274834 0.010963
10.376858 0.000000 0.000000
0.000000 -1.778410 -10.493785
Hf O XX
32 63 1
Direct
0.368263 0.249429 0.135449
0.355385 0.252912 0.648695
0.378201 0.773880 0.125320
0.351773 0.764418 0.634097
0.868329 0.282092 0.167984
0.872440 0.259478 0.656186
0.866313 0.778582 0.128451
0.875565 0.758473 0.643654
0.137941 0.012862 0.109593
0.129286 0.997272 0.614223
0.135626 0.524040 0.079475
0.140870 0.514385 0.599181
0.659202 0.050672 0.123854
0.634874 0.004148 0.603043
0.635883 0.513203 0.090199
0.643146 0.495897 0.604538
0.126317 0.221694 0.354954
0.125687 0.230999 0.864593
0.131122 0.735025 0.344663
0.131142 0.744487 0.867262
0.644454 0.220810 0.385876
0.632458 0.238344 0.853412
0.635470 0.736719 0.340595
0.620685 0.732773 0.831721
0.345923 0.491100 0.381956
0.359524 0.466942 0.891357
0.355112 0.972948 0.391517
0.398451 0.006770 0.922111
0.858113 0.495982 0.397343
0.858024 0.493055 0.899749
0.859892 0.970480 0.389001
0.857133 0.998036 0.902926
0.268369 0.123818 0.015919
0.265575 0.113706 0.522940
0.281212 0.632409 0.993704
0.273076 0.628969 0.492835
0.782574 0.146964 0.023366
0.774979 0.120108 0.518933
0.777059 0.654888 0.981822
0.779248 0.635781 0.496710
0.274908 0.377173 0.237262
0.219018 0.373358 0.736564
0.229138 0.875315 0.244009
0.229319 0.881945 0.739870
0.721091 0.389511 0.248723
0.712912 0.367106 0.739822
0.721967 0.889392 0.235332
0.734777 0.870701 0.722961
0.221362 0.368017 0.487543
0.218959 0.364586 0.989871
0.217119 0.865350 0.489053
0.233393 0.878226 0.993603
0.739608 0.371437 0.498281
0.727610 0.378380 0.989723
0.713661 0.871457 0.482355
0.722199 0.894412 0.987676
0.282015 0.119451 0.263958
0.282403 0.134571 0.781239
0.265712 0.622611 0.245420
0.290117 0.611291 0.752162
0.781904 0.133125 0.275753
0.768103 0.120919 0.762381
0.773355 0.632754 0.240747
0.790275 0.604747 0.736580
0.481598 0.354530 0.516858
0.472935 0.351931 0.796712
0.469651 0.837884 0.314006
0.469808 0.841474 0.854224
0.962050 0.326489 0.347935
0.956265 0.331017 0.839116
0.951592 0.810591 0.326242
0.959822 0.836965 0.844882
0.033241 0.067307 0.402311
0.031812 0.083886 0.929619
0.040810 0.574478 0.401957
0.041767 0.571342 0.901281
0.525943 0.085327 0.437810
0.530433 0.143878 0.979280
0.529222 0.581466 0.407485
0.539284 0.574320 0.907844
0.048319 0.195397 0.168434
0.032163 0.149789 0.684135
0.043811 0.698370 0.132696
0.055008 0.687061 0.666240
0.540113 0.185596 0.214022
0.518944 0.121739 0.710305
0.524193 0.648994 0.159383
0.530060 0.651226 0.661126
0.474463 0.395277 0.066936
0.479684 0.936288 0.093617
0.464736 0.895793 0.565999
0.957589 0.441501 0.089828
0.967123 0.423783 0.585037
0.957600 0.947474 0.107401
0.953164 0.916579 0.573847
0.466245 0.335302 0.326186
